562 5
10 10 10 10 10 

0 0 0 0 0 0 3 2 14 66 
0 0 0 0 0 0 5 3 4 6 7 12 
1 0 0 0 1 0 4 11 10 8 5 
4 0 0 0 3 0 2 8 5 
5 0 0 0 4 0 1 9 
1 0 0 0 2 0 1 8 
6 0 0 0 4 0 2 8 127 
10 0 0 0 2 0 1 13 
8 0 0 0 3 0 1 13 
5 0 0 0 1 0 1 13 
8 0 0 0 2 0 1 13 
3 0 0 0 3 0 1 13 
0 0 0 0 0 0 5 118 160 172 214 256 
0 0 0 0 0 0 5 15 16 17 19 28 
6 1 1 1 1 1 2 27 18 
2 2 2 3 2 3 3 30 22 20 
7 2 2 1 2 2 3 30 27 20 
10 3 6 2 2 2 4 30 24 22 21 
2 1 2 1 2 2 3 30 22 21 
4 1 6 4 2 5 4 25 24 23 21 
4 4 2 1 1 2 4 42 31 29 26 
9 7 2 4 2 2 3 33 25 23 
5 2 2 1 4 4 4 42 37 35 31 
1 3 1 2 2 1 3 42 35 29 
4 2 4 3 2 2 4 42 37 34 32 
3 2 1 3 3 3 3 35 33 32 
2 3 1 2 3 2 3 42 37 31 
5 3 2 4 3 4 2 42 29 
8 1 1 3 1 2 2 37 32 
2 4 1 1 3 4 1 31 
10 3 6 4 5 2 2 39 34 
9 2 6 1 2 3 3 40 39 36 
8 3 3 5 3 3 1 34 
7 2 4 2 4 2 2 40 36 
6 2 1 3 2 1 4 47 41 39 38 
9 2 2 1 3 1 3 47 41 38 
7 4 1 3 3 9 3 47 41 39 
5 3 3 3 1 3 3 46 45 43 
6 4 3 1 1 3 3 46 45 43 
8 2 3 2 5 1 3 50 47 43 
3 2 2 1 2 1 3 50 49 44 
7 1 3 2 1 1 6 64 52 51 50 49 48 
5 3 1 1 4 3 2 49 44 
1 3 2 2 2 2 5 64 63 52 51 48 
9 3 2 3 2 1 4 52 50 49 48 
3 4 3 1 2 2 4 64 51 49 48 
1 1 3 8 5 2 4 63 51 49 48 
9 2 4 3 3 4 8 61 60 59 57 56 55 54 53 
2 3 3 3 1 3 4 61 57 56 54 
7 2 3 2 2 2 4 63 60 55 54 
9 1 2 3 3 3 3 58 57 56 
2 3 3 5 1 2 3 59 55 54 
8 5 3 3 5 3 2 62 58 
10 3 1 2 2 2 1 65 
6 2 4 2 4 1 1 65 
5 2 2 4 3 2 1 65 
3 2 4 1 1 4 1 65 
1 4 1 3 2 2 1 65 
9 2 2 1 4 2 1 65 
9 2 1 2 3 2 1 65 
9 1 1 2 2 3 2 65 292 
9 3 2 4 3 4 1 65 
8 1 2 4 2 2 1 65 
10 2 3 2 2 3 1 65 
0 0 0 0 0 0 1 562 
0 0 0 0 0 0 5 67 68 69 71 80 
3 1 1 1 1 1 2 79 70 
10 2 3 3 6 4 3 81 74 72 
8 2 1 2 1 3 3 81 79 72 
2 4 3 3 3 3 4 81 75 74 73 
1 3 1 1 2 2 3 81 74 73 
3 1 1 4 2 2 4 77 76 75 73 
6 1 1 2 2 5 4 94 83 82 78 
2 3 1 2 1 2 3 85 77 76 
2 2 3 5 2 1 4 94 87 86 82 
5 3 4 3 2 1 4 94 89 87 83 
2 2 1 2 2 2 4 94 89 86 84 
10 3 3 3 2 2 3 87 85 84 
1 3 2 3 2 2 3 94 89 83 
9 3 2 1 3 2 2 94 82 
10 3 2 3 2 2 2 94 83 
3 1 3 2 2 1 2 89 84 
6 2 2 3 2 2 2 91 86 
4 1 1 1 4 1 3 92 91 88 
5 2 6 2 3 2 1 86 
6 2 1 2 4 3 3 92 88 534 
6 1 1 3 1 3 4 99 93 91 90 
7 3 2 3 6 1 3 99 93 90 
6 2 2 3 3 5 3 99 93 91 
8 3 4 1 1 5 3 98 97 95 
3 4 2 1 2 2 3 98 97 95 
10 2 3 5 4 1 3 102 99 95 
6 3 4 2 3 4 2 102 96 
4 2 4 3 4 6 2 102 96 
5 4 2 5 2 2 1 96 
6 3 1 3 3 2 6 116 115 104 103 101 100 
10 3 4 1 2 1 4 104 102 101 100 
4 1 2 1 2 2 4 116 103 101 100 
2 5 1 4 3 5 4 115 103 101 100 
7 2 2 2 1 3 8 113 112 111 109 108 107 106 105 
2 3 4 3 4 3 4 113 109 108 106 
4 3 5 1 2 2 4 115 112 107 106 
1 1 5 1 3 4 3 110 109 108 
8 3 3 4 1 3 3 111 107 106 
2 4 2 1 2 2 2 114 110 
1 2 2 4 2 1 1 117 
5 2 3 2 3 2 1 117 
8 1 3 2 4 2 1 117 
5 3 4 1 2 2 1 117 
5 3 1 3 4 3 1 117 
7 4 3 3 1 2 1 117 
8 3 2 4 1 1 1 117 
3 4 4 2 1 5 1 117 
8 4 2 2 4 5 1 117 
8 2 1 4 2 1 1 117 
5 1 5 3 4 2 1 117 
0 0 0 0 0 0 1 562 
0 0 0 0 0 0 3 119 123 125 
7 1 0 1 1 1 4 128 122 121 120 
7 3 0 3 1 2 2 129 124 
1 2 0 2 4 2 6 147 135 133 132 131 127 
3 3 0 1 6 2 5 158 135 130 129 126 
5 1 0 3 1 3 4 135 133 130 126 
5 2 0 2 1 3 4 158 135 130 126 
10 1 0 3 4 4 4 131 130 128 127 
6 2 0 4 1 2 9 147 144 143 139 138 137 136 134 131 
7 2 0 2 1 1 8 144 143 142 140 139 138 137 134 
10 5 0 5 3 3 4 147 144 140 129 
1 2 0 1 3 3 4 143 139 136 134 
8 4 0 2 4 3 4 144 143 142 140 
5 3 0 2 4 2 3 142 141 140 
5 1 0 3 2 3 4 152 144 143 139 
9 3 0 2 1 3 3 158 142 136 
3 1 0 2 5 3 3 152 145 141 
5 1 0 3 3 3 2 142 140 
4 3 0 7 2 2 3 157 151 145 
4 2 0 2 3 2 3 157 152 145 
10 6 0 1 2 2 3 157 151 145 
9 2 0 2 2 2 4 157 151 146 554 
1 1 0 2 4 3 2 157 145 
8 3 0 3 2 3 3 151 149 148 
2 2 0 5 1 3 2 152 146 
8 4 0 2 3 1 4 157 156 151 150 
1 4 0 3 3 4 2 150 148 
10 2 0 1 1 1 1 146 
7 1 0 1 5 1 3 156 150 149 
3 2 0 2 1 3 1 148 
9 5 0 2 4 6 4 157 156 154 153 
9 2 0 4 1 2 3 155 154 153 
4 2 0 1 2 2 2 155 153 
3 3 0 2 2 4 2 154 153 
7 1 0 4 3 4 1 155 
5 3 0 2 2 1 1 159 
2 3 0 3 2 1 1 159 
1 4 0 1 2 2 1 159 
6 6 0 3 2 2 1 159 
9 1 0 2 3 3 1 159 
3 1 0 4 3 3 1 159 
0 0 0 0 0 0 1 562 
0 0 0 0 0 0 7 161 162 164 165 168 169 170 
2 0 1 0 0 0 2 167 163 
8 0 3 0 0 0 2 167 163 
9 0 3 0 0 0 1 166 
7 0 3 0 0 0 1 167 
8 0 4 0 0 0 2 166 463 
10 0 3 0 0 0 1 171 
5 0 4 0 0 0 1 171 
9 0 1 0 0 0 1 171 
6 0 1 0 0 0 1 171 
8 0 2 0 0 0 1 171 
0 0 0 0 0 0 5 298 330 362 394 406 
0 0 0 0 0 0 5 173 177 178 179 183 
8 1 0 1 1 1 3 181 176 174 
9 4 0 5 3 4 2 192 175 
6 1 0 4 2 3 8 212 198 193 188 187 186 182 180 
8 1 0 2 3 1 10 212 201 198 195 191 190 189 188 186 185 
9 1 0 2 2 1 7 201 200 197 193 191 184 181 
9 5 0 2 3 4 6 199 198 188 187 186 180 
1 3 0 3 1 1 3 193 185 182 
9 1 0 2 2 4 6 201 200 197 195 191 184 
4 2 0 2 4 1 4 195 192 188 187 
5 2 0 1 3 4 4 200 199 197 190 
3 2 0 2 1 3 4 203 199 198 188 
8 3 0 3 4 5 3 206 205 190 
4 4 0 2 2 3 2 206 187 
5 2 0 5 4 1 3 211 200 194 
2 1 0 2 3 4 3 211 205 194 
10 3 0 2 2 4 3 211 206 194 
2 2 0 3 4 3 2 199 197 
9 1 0 1 3 2 2 211 194 
8 2 0 2 2 5 2 211 194 
5 2 0 1 5 1 2 203 198 
3 2 0 1 2 1 2 205 196 
5 3 0 1 2 1 1 196 
4 1 0 2 3 3 6 211 210 209 207 205 336 
8 4 0 2 3 1 3 210 204 202 
3 2 0 2 2 3 3 208 207 203 
9 1 0 4 2 1 2 205 202 
7 2 0 3 1 3 2 205 202 
1 5 0 2 1 3 3 208 207 206 
10 3 0 2 3 2 2 207 203 
10 4 0 2 4 2 2 209 207 
2 3 0 2 2 1 2 211 210 
7 2 0 2 2 3 1 208 
3 1 0 3 1 2 1 208 
10 2 0 3 2 4 1 209 
4 5 0 4 3 3 1 213 
6 5 0 5 2 2 1 213 
10 3 0 2 4 2 1 213 
1 2 0 4 2 4 1 213 
3 4 0 4 2 2 1 213 
5 3 0 3 3 2 1 213 
0 0 0 0 0 0 1 562 
0 0 0 0 0 0 5 215 219 220 221 224 
10 1 1 1 0 1 3 223 218 216 
1 1 1 3 0 2 2 225 217 
8 5 2 2 0 2 5 254 230 229 226 222 
7 1 3 4 0 4 9 254 243 239 235 233 231 230 229 228 
2 1 2 2 0 4 9 254 243 236 235 233 231 230 227 226 
2 3 2 1 0 1 5 254 230 229 222 309 
4 1 2 3 0 3 6 242 241 235 233 227 223 
4 4 3 3 0 4 9 243 242 241 237 236 235 233 232 227 
7 4 2 4 0 4 3 243 237 225 
6 4 3 2 0 4 5 242 237 236 235 229 
4 3 3 2 0 4 4 239 236 232 229 
8 7 3 3 0 4 4 242 241 237 234 
9 5 1 2 0 5 4 248 244 239 234 
4 3 4 2 0 3 4 242 240 237 236 
1 1 3 3 0 1 4 248 247 244 238 
8 2 2 1 0 2 2 241 234 
6 2 4 1 0 3 2 248 232 
9 4 1 2 0 5 3 253 247 238 
5 1 1 2 0 2 3 253 248 238 
9 4 3 3 0 1 2 253 238 
2 2 3 1 0 1 2 247 238 
3 2 4 2 0 5 5 253 251 247 246 245 
1 1 6 5 0 1 4 253 251 247 245 
1 4 4 2 0 2 1 240 
9 3 2 2 0 1 4 253 252 251 247 
5 1 4 3 0 2 3 251 246 245 
6 2 1 1 0 2 3 251 248 246 
10 3 3 3 0 2 2 252 244 
3 1 2 1 0 3 1 244 
8 2 2 3 0 2 4 253 251 250 249 
7 1 2 2 0 2 2 252 249 
7 3 2 3 0 2 2 250 249 
4 3 2 2 0 2 2 250 249 
9 1 1 6 0 2 1 252 
1 2 2 4 0 3 1 255 
4 3 1 1 0 1 1 255 
1 1 3 2 0 1 1 255 
6 2 4 3 0 3 1 255 
1 2 3 3 0 2 1 255 
2 4 3 5 0 2 1 255 
0 0 0 0 0 0 1 562 
0 0 0 0 0 0 5 257 261 262 263 267 
3 1 1 0 1 1 3 265 260 258 
3 3 2 0 2 3 2 276 259 
7 2 1 0 4 1 8 296 282 277 272 271 270 266 264 
2 2 2 0 3 2 10 296 285 282 279 275 274 273 272 270 269 
9 1 2 0 1 2 7 285 284 281 277 275 268 265 
2 3 2 0 3 2 6 283 282 272 271 270 264 
5 2 3 0 2 3 4 277 270 269 266 
1 3 2 0 2 2 6 285 284 281 279 275 268 
1 4 2 0 5 4 4 279 276 272 271 
5 1 7 0 3 4 4 284 283 281 274 
8 3 1 0 2 3 4 287 283 282 272 
5 4 3 0 2 5 3 290 289 274 
3 1 1 0 3 2 2 290 271 
6 2 2 0 1 2 3 295 284 278 
10 1 4 0 2 3 3 295 289 278 
9 4 5 0 4 4 3 295 290 278 
6 4 2 0 2 2 2 283 281 
7 4 4 0 2 4 2 295 278 
5 4 4 0 1 2 2 295 278 
2 2 3 0 2 4 2 287 282 
5 2 2 0 1 4 2 289 280 
7 4 2 0 3 3 1 280 
4 3 1 0 2 1 5 295 294 293 291 289 
1 2 2 0 3 2 3 294 288 286 
7 1 5 0 1 2 3 292 291 287 
3 2 1 0 5 1 2 289 286 
8 2 2 0 2 2 2 289 286 
4 6 4 0 2 1 3 292 291 290 
10 1 2 0 1 3 2 291 287 
6 3 3 0 3 2 3 293 291 529 
4 1 2 0 4 2 2 295 294 
2 4 2 0 1 3 1 292 
6 3 2 0 2 2 1 292 
3 1 1 0 3 1 1 293 
6 3 4 0 4 3 1 297 
3 1 1 0 1 4 1 297 
2 2 4 0 3 2 1 297 
1 1 2 0 3 1 1 297 
7 5 2 0 5 3 1 297 
8 2 3 0 4 3 1 297 
0 0 0 0 0 0 1 562 
0 0 0 0 0 0 6 299 300 301 302 303 304 
7 0 0 1 1 1 4 307 306 305 462 
5 0 0 1 1 3 3 314 307 305 
8 0 0 2 4 3 3 314 307 305 
2 0 0 4 3 1 4 312 311 310 306 
10 0 0 4 3 1 3 312 306 305 
1 0 0 2 4 3 3 311 310 306 
5 0 0 3 3 3 5 315 313 310 309 308 
7 0 0 1 1 4 5 315 314 313 309 308 
9 0 0 3 2 3 3 312 311 308 
5 0 0 2 4 3 3 318 317 316 
9 0 0 5 2 4 3 318 317 316 
9 0 0 1 2 1 3 318 317 316 
7 0 0 2 5 3 3 318 317 316 
6 0 0 1 2 2 3 318 317 316 
3 0 0 1 2 2 2 317 316 
3 0 0 2 3 3 2 320 318 
7 0 0 2 4 3 1 316 
5 0 0 4 1 4 3 324 320 319 
4 0 0 3 4 4 4 328 324 322 320 
4 0 0 1 2 2 3 324 321 319 
9 0 0 2 2 5 3 328 325 322 
6 0 0 4 1 3 2 323 321 
8 0 0 1 1 1 2 327 325 
9 0 0 1 2 3 1 323 
8 0 0 3 4 2 2 327 326 
4 0 0 6 1 1 2 327 326 
1 0 0 2 2 3 1 326 
4 0 0 5 4 1 1 329 
10 0 0 3 2 2 1 329 
5 0 0 3 3 1 1 329 
0 0 0 0 0 0 1 562 
0 0 0 0 0 0 6 331 332 333 334 335 336 
2 1 0 1 1 0 4 345 339 338 337 
2 3 0 4 5 0 5 348 346 345 339 337 
9 3 0 1 1 0 4 346 345 339 337 
1 2 0 2 2 0 2 338 337 
7 1 0 2 3 0 3 341 340 338 
4 3 0 2 2 0 3 342 340 338 
8 3 0 1 1 0 4 344 343 341 340 
2 4 0 2 2 0 4 348 346 344 343 
3 2 0 3 4 0 1 342 
10 3 0 2 2 0 3 350 349 347 
6 1 0 4 3 0 3 350 349 347 
2 2 0 6 3 0 3 350 349 347 
7 4 0 3 2 0 2 350 347 
3 2 0 4 4 0 2 350 347 
6 4 0 6 1 0 2 350 347 
3 3 0 1 2 0 1 347 
2 2 0 1 2 0 4 360 357 352 351 
6 3 0 4 1 0 2 351 349 
1 2 0 1 3 0 5 360 357 355 354 353 
1 1 0 3 2 0 4 357 354 353 351 
4 6 0 2 5 0 2 359 355 
1 2 0 1 1 0 2 354 353 
9 3 0 2 3 0 2 359 358 
10 2 0 4 2 0 2 359 358 
5 2 0 1 4 0 1 356 
10 1 0 2 4 0 1 358 
10 3 0 2 4 0 1 359 
8 2 0 2 4 0 1 361 
5 3 0 3 1 0 2 361 482 
5 2 0 3 1 0 1 361 
0 0 0 0 0 0 1 562 
0 0 0 0 0 0 6 363 364 365 366 367 370 
2 1 1 1 0 0 4 377 371 369 368 
10 2 2 1 0 0 6 380 378 377 371 368 407 
6 5 1 3 0 0 4 378 377 371 368 
9 3 1 4 0 0 2 369 368 
1 2 3 4 0 0 3 373 372 369 
8 1 1 3 0 0 4 376 375 374 372 
8 4 5 2 0 0 4 380 378 375 374 
2 3 4 2 0 0 4 378 376 374 372 
6 2 3 2 0 0 1 373 
1 2 2 1 0 0 3 382 381 379 
1 2 2 2 0 0 3 382 381 379 
1 3 1 3 0 0 2 382 379 
10 3 2 2 0 0 2 382 379 
4 1 3 2 0 0 2 381 379 
4 2 2 3 0 0 2 382 379 
4 3 3 2 0 0 1 379 
8 3 3 3 0 0 4 392 391 384 383 
10 1 3 2 0 0 3 385 383 381 
2 3 2 2 0 0 4 392 391 387 386 
7 5 1 1 0 0 3 391 385 383 
6 4 2 4 0 0 2 390 387 
9 2 3 2 0 0 2 386 385 
7 4 4 2 0 0 2 390 389 
9 3 3 3 0 0 2 390 389 
4 3 2 5 0 0 1 388 
6 2 4 5 0 0 1 389 
6 2 2 3 0 0 1 393 
10 1 4 4 0 0 1 393 
8 1 3 1 0 0 1 393 
7 2 3 1 0 0 1 393 
0 0 0 0 0 0 1 562 
0 0 0 0 0 0 5 395 396 398 403 404 
6 0 0 0 0 1 5 402 400 399 397 461 
7 0 0 0 0 3 2 400 399 
5 0 0 0 0 2 1 401 
8 0 0 0 0 3 1 399 
1 0 0 0 0 1 1 405 
8 0 0 0 0 3 1 405 
8 0 0 0 0 4 1 405 
4 0 0 0 0 4 1 405 
5 0 0 0 0 2 1 405 
7 0 0 0 0 2 1 405 
0 0 0 0 0 0 5 438 460 472 494 516 
0 0 0 0 0 0 6 407 408 409 410 411 436 
7 1 1 1 0 0 5 418 415 414 413 412 
4 3 1 2 0 0 4 418 415 414 412 
9 2 4 2 0 0 4 435 415 414 412 
6 3 1 3 0 0 3 414 413 412 
10 2 3 4 0 0 2 434 413 
8 4 4 3 0 0 3 427 421 416 
3 2 2 3 0 0 3 433 420 417 
3 1 3 3 0 0 2 427 419 
9 5 3 1 0 0 5 432 430 427 426 422 
2 2 3 2 0 0 1 419 
10 4 2 3 0 0 1 419 
10 3 2 2 0 0 1 419 
8 2 3 4 0 0 5 432 431 430 426 423 
5 3 1 1 0 0 5 432 431 430 429 423 
9 2 3 1 0 0 5 433 431 430 429 428 
9 2 1 2 0 0 2 433 423 
6 2 1 2 0 0 1 424 
10 3 1 3 0 0 1 425 
3 1 3 2 0 0 1 428 
2 3 5 1 0 0 1 429 
8 2 1 2 0 0 1 433 
4 4 4 4 0 0 1 437 
7 2 2 4 0 0 1 437 
1 4 3 4 0 0 1 437 
4 2 2 3 0 0 2 437 520 
5 3 3 3 0 0 1 437 
7 2 3 3 0 0 1 437 
4 2 3 3 0 0 1 437 
3 2 2 2 0 0 1 437 
5 2 5 2 0 0 1 437 
0 0 0 0 0 0 1 562 
0 0 0 0 0 0 6 439 440 441 443 444 447 
9 1 1 0 0 0 3 452 446 442 
1 4 2 0 0 0 4 458 457 446 445 
9 2 1 0 0 0 5 457 451 446 445 539 
10 3 3 0 0 0 4 458 457 449 445 
6 3 1 0 0 0 3 457 449 445 
2 1 3 0 0 0 2 457 446 
3 2 5 0 0 0 4 456 453 450 448 
6 1 1 0 0 0 4 456 453 449 448 
2 3 1 0 0 0 3 458 457 451 
4 2 1 0 0 0 1 454 
7 3 3 0 0 0 1 455 
10 4 4 0 0 0 1 455 
1 3 3 0 0 0 1 453 
7 2 2 0 0 0 1 454 
3 1 3 0 0 0 1 459 
10 5 3 0 0 0 1 459 
6 1 3 0 0 0 1 459 
5 3 3 0 0 0 1 459 
8 3 5 0 0 0 1 459 
5 3 2 0 0 0 1 459 
0 0 0 0 0 0 1 562 
0 0 0 0 0 0 5 461 462 463 465 466 
6 0 0 0 1 0 2 470 464 
4 0 0 0 3 0 4 470 469 468 467 
5 0 0 0 2 0 4 470 469 468 467 
10 0 0 0 4 0 3 469 468 467 
8 0 0 0 1 0 3 469 468 467 
6 0 0 0 4 0 2 468 467 
1 0 0 0 2 0 1 471 
10 0 0 0 5 0 1 471 
2 0 0 0 1 0 1 471 
4 0 0 0 2 0 1 471 
0 0 0 0 0 0 2 538 550 
0 0 0 0 0 0 6 473 475 476 479 480 484 
6 1 1 0 0 0 2 483 474 
7 5 2 0 0 0 3 492 481 477 
2 2 1 0 0 0 2 483 477 
10 2 1 0 0 0 2 485 478 
1 2 1 0 0 0 4 491 488 486 482 
8 6 2 0 0 0 4 492 491 489 481 
6 2 3 0 0 0 3 490 483 481 
3 2 3 0 0 0 2 485 481 
2 3 3 0 0 0 3 488 487 486 
5 2 3 0 0 0 3 490 489 487 
4 2 1 0 0 0 2 487 485 
3 4 4 0 0 0 2 492 486 
6 4 5 0 0 0 1 486 
2 2 4 0 0 0 1 493 
3 2 2 0 0 0 1 493 
1 2 2 0 0 0 1 493 
10 1 3 0 0 0 1 493 
7 2 3 0 0 0 1 493 
10 2 1 0 0 0 1 493 
7 2 5 0 0 0 1 493 
0 0 0 0 0 0 1 562 
0 0 0 0 0 0 9 495 496 497 498 502 503 504 505 514 
3 0 0 1 0 1 5 513 512 511 510 501 
7 0 0 3 0 5 4 513 509 508 499 
6 0 0 3 0 2 2 509 500 
5 0 0 2 0 2 2 509 501 
5 0 0 2 0 1 3 511 510 506 
9 0 0 3 0 2 1 501 
2 0 0 3 0 3 2 508 506 
6 0 0 2 0 1 2 510 506 
6 0 0 3 0 4 2 508 506 
6 0 0 1 0 3 2 512 509 
4 0 0 3 0 4 1 506 
6 0 0 4 0 3 1 507 
7 0 0 2 0 1 1 515 
8 0 0 2 0 1 1 515 
2 0 0 2 0 2 1 515 
3 0 0 5 0 2 1 515 
6 0 0 4 0 2 1 515 
6 0 0 1 0 3 1 515 
3 0 0 1 0 4 1 515 
4 0 0 3 0 4 1 515 
0 0 0 0 0 0 1 562 
0 0 0 0 0 0 5 517 518 519 520 525 
4 0 1 0 0 1 4 528 527 524 521 
9 0 1 0 0 2 4 528 527 524 521 
6 0 2 0 0 3 4 536 527 524 522 
3 0 2 0 0 2 5 535 528 527 524 523 
5 0 4 0 0 2 3 536 535 523 
2 0 2 0 0 2 2 535 523 
9 0 5 0 0 4 4 533 530 529 526 
10 0 2 0 0 3 4 533 530 529 526 
9 0 4 0 0 1 4 536 535 528 527 
1 0 4 0 0 1 2 534 532 
10 0 3 0 0 5 2 533 531 
3 0 1 0 0 3 2 532 531 
2 0 2 0 0 3 1 531 
5 0 1 0 0 2 1 531 
5 0 2 0 0 3 1 537 
3 0 1 0 0 3 1 537 
3 0 4 0 0 2 1 537 
4 0 4 0 0 3 1 537 
8 0 1 0 0 2 1 537 
6 0 4 0 0 3 1 537 
0 0 0 0 0 0 1 562 
0 0 0 0 0 0 4 539 540 542 548 
5 0 0 1 0 0 3 547 545 541 
10 0 0 3 0 0 3 545 544 543 
10 0 0 2 0 0 2 544 543 
3 0 0 3 0 0 2 546 543 
1 0 0 4 0 0 1 549 
6 0 0 2 0 0 1 549 
3 0 0 2 0 0 1 549 
10 0 0 2 0 0 1 549 
10 0 0 2 0 0 1 549 
6 0 0 4 0 0 1 549 
0 0 0 0 0 0 1 562 
0 0 0 0 0 0 5 551 553 558 559 560 
8 0 1 0 0 0 4 557 556 554 552 
2 0 2 0 0 0 1 555 
4 0 1 0 0 0 1 554 
1 0 3 0 0 0 1 561 
6 0 3 0 0 0 1 561 
4 0 3 0 0 0 1 561 
4 0 2 0 0 0 1 561 
6 0 2 0 0 0 1 561 
9 0 1 0 0 0 1 561 
1 0 7 0 0 0 1 561 
0 0 0 0 0 0 1 562 
0 0 0 0 0 0 0 
